Route 1: 0 45 74 26 42 4 95 31 83 93 97 8 18 0
Route 2: 0 2 6 91 46 81 86 16 85 0
Route 3: 0 38 30 32 78 51 59 1 21 12 0
Route 4: 0 89 9 55 47 70 27 82 5 33 61 57 73 0
Route 5: 0 68 80 72 29 100 37 28 62 20 56 76 0
Route 6: 0 22 39 34 69 87 48 13 75 41 0
Route 7: 0 23 15 94 24 99 79 10 50 92 0
Route 8: 0 14 52 53 44 84 71 0
Route 9: 0 58 3 64 65 43 7 40 19 96 49 0
Route 10: 0 77 66 98 11 60 17 67 25 36 0
Route 11: 0 90 63 88 54 35 0
